# Objective value = 6784.06
I_0_0 2457
I_0_1 3404
I_0_2 3.0190000000000009e+03
I_0_3 2.5460000000000009e+03
I_0_4 3.4930000000000009e+03
I_0_5 3.0200000000000009e+03
I_0_6 3.9670000000000009e+03
I_1_0 32
I_1_1 16
I_1_2 32
I_1_3 16
I_1_4 0
I_1_5 1.5999999999999993e+01
I_1_6 0
I_2_0 148
I_2_1 74
I_2_2 0
I_2_3 148
I_2_4 74
I_2_5 7.3999999999999972e+01
I_2_6 0
I_3_0 75
I_3_1 0
I_3_2 75
I_3_3 75
I_3_4 0
I_3_5 75
I_3_6 0
I_4_0 54
I_4_1 27
I_4_2 0
I_4_3 54
I_4_4 27
I_4_5 2.6999999999999986e+01
I_4_6 0
I_5_0 122
I_5_1 61
I_5_2 0
I_5_3 122
I_5_4 61
I_5_5 6.0999999999999972e+01
I_5_6 0
I_6_0 198
I_6_1 99
I_6_2 198
I_6_3 198
I_6_4 99
I_6_5 98.9999999999992
I_6_6 0
I_7_0 27
I_7_1 0
I_7_2 27
I_7_3 27
I_7_4 0
I_7_5 27
I_7_6 0
I_8_0 57
I_8_1 0
I_8_2 57
I_8_3 57
I_8_4 0
I_8_5 57
I_8_6 0
I_9_0 45
I_9_1 0
I_9_2 45
I_9_3 45
I_9_4 0
I_9_5 45
I_9_6 0
I_10_0 152
I_10_1 76
I_10_2 152
I_10_3 152
I_10_4 76
I_10_5 7.5999999999999972e+01
I_10_6 0
I_11_0 88
I_11_1 44
I_11_2 0
I_11_3 88
I_11_4 44
I_11_5 4.3999999999999986e+01
I_11_6 0
I_12_0 42
I_12_1 0
I_12_2 2.7999999999998977e+01
I_12_3 42
I_12_4 0
I_12_5 42
I_12_6 0
I_13_0 32
I_13_1 0
I_13_2 32
I_13_3 32
I_13_4 0
I_13_5 32
I_13_6 0
I_14_0 34
I_14_1 17
I_14_2 0
I_14_3 34
I_14_4 17
I_14_5 1.6999999999999993e+01
I_14_6 0
I_15_0 102
I_15_1 51
I_15_2 0
I_15_3 6.1999999999998977e+01
I_15_4 1.0999999999998977e+01
I_15_5 5.0999999999999972e+01
I_15_6 0
I_16_0 40
I_16_1 20
I_16_2 40
I_16_3 20
I_16_4 0
I_16_5 1.9999999999999879e+01
I_16_6 0
I_17_0 26
I_17_1 13
I_17_2 26
I_17_3 1.2999999999999993e+01
I_17_4 0
I_17_5 13
I_17_6 0
I_18_0 130
I_18_1 65
I_18_2 130
I_18_3 130
I_18_4 65
I_18_5 6.4999999999999972e+01
I_18_6 0
I_19_0 41
I_19_1 0
I_19_2 41
I_19_3 41
I_19_4 0
I_19_5 41
I_19_6 0
I_20_0 65
I_20_1 0
I_20_2 65
I_20_3 65
I_20_4 0
I_20_5 65
I_20_6 0
q_1_0 0
q_1_1 32
q_1_2 0
q_1_3 0
q_1_4 3.1999999999999979e+01
q_1_5 0
q_2_0 0
q_2_1 0
q_2_2 222
q_2_3 0
q_2_4 7.3999999999999972e+01
q_2_5 0
q_3_0 0
q_3_1 150
q_3_2 75
q_3_3 0
q_3_4 150
q_3_5 0
q_4_0 0
q_4_1 0
q_4_2 81
q_4_3 0
q_4_4 2.6999999999999986e+01
q_4_5 0
q_5_0 0
q_5_1 0
q_5_2 183
q_5_3 0
q_5_4 6.0999999999999972e+01
q_5_5 0
q_6_0 0
q_6_1 198
q_6_2 99
q_6_3 0
q_6_4 98.9999999999992
q_6_5 0
q_7_0 0
q_7_1 54
q_7_2 27
q_7_3 0
q_7_4 54
q_7_5 0
q_8_0 0
q_8_1 114
q_8_2 57
q_8_3 0
q_8_4 114
q_8_5 0
q_9_0 0
q_9_1 90
q_9_2 45
q_9_3 0
q_9_4 90
q_9_5 0
q_10_0 0
q_10_1 152
q_10_2 76
q_10_3 0
q_10_4 7.5999999999999972e+01
q_10_5 0
q_11_0 0
q_11_1 0
q_11_2 132
q_11_3 0
q_11_4 4.3999999999999986e+01
q_11_5 0
q_12_0 0
q_12_1 6.9999999999998977e+01
q_12_2 5.6000000000001023e+01
q_12_3 0
q_12_4 84
q_12_5 0
q_13_0 0
q_13_1 64
q_13_2 32
q_13_3 0
q_13_4 64
q_13_5 0
q_14_0 0
q_14_1 0
q_14_2 51
q_14_3 0
q_14_4 1.6999999999999989e+01
q_14_5 0
q_15_0 0
q_15_1 0
q_15_2 1.1299999999999898e+02
q_15_3 0
q_15_4 91.000000000001
q_15_5 0
q_16_0 0
q_16_1 40
q_16_2 0
q_16_3 0
q_16_4 3.9999999999999879e+01
q_16_5 0
q_17_0 0
q_17_1 26
q_17_2 0
q_17_3 0
q_17_4 26
q_17_5 0
q_18_0 0
q_18_1 130
q_18_2 65
q_18_3 0
q_18_4 6.4999999999999972e+01
q_18_5 0
q_19_0 0
q_19_1 82
q_19_2 41
q_19_3 0
q_19_4 82
q_19_5 0
q_20_0 0
q_20_1 130
q_20_2 65
q_20_3 0
q_20_4 130
q_20_5 0
y_0_0 0
y_0_1 1
y_0_2 1
y_0_3 0
y_0_4 1
y_0_5 0
y_1_0 0
y_1_1 1
y_1_2 0
y_1_3 0
y_1_4 1
y_1_5 0
y_2_0 0
y_2_1 0
y_2_2 1
y_2_3 0
y_2_4 1
y_2_5 0
y_3_0 0
y_3_1 1
y_3_2 1
y_3_3 0
y_3_4 1
y_3_5 0
y_4_0 0
y_4_1 0
y_4_2 1
y_4_3 0
y_4_4 1
y_4_5 0
y_5_0 0
y_5_1 0
y_5_2 1
y_5_3 0
y_5_4 1
y_5_5 0
y_6_0 0
y_6_1 1
y_6_2 1
y_6_3 0
y_6_4 1
y_6_5 0
y_7_0 0
y_7_1 1
y_7_2 1
y_7_3 0
y_7_4 1
y_7_5 0
y_8_0 0
y_8_1 1
y_8_2 1
y_8_3 0
y_8_4 1
y_8_5 0
y_9_0 0
y_9_1 1
y_9_2 1
y_9_3 0
y_9_4 1
y_9_5 0
y_10_0 0
y_10_1 1
y_10_2 1
y_10_3 0
y_10_4 1
y_10_5 0
y_11_0 0
y_11_1 0
y_11_2 1
y_11_3 0
y_11_4 1
y_11_5 0
y_12_0 0
y_12_1 1
y_12_2 1
y_12_3 0
y_12_4 1
y_12_5 0
y_13_0 0
y_13_1 1
y_13_2 1
y_13_3 0
y_13_4 1
y_13_5 0
y_14_0 0
y_14_1 0
y_14_2 1
y_14_3 0
y_14_4 1
y_14_5 0
y_15_0 0
y_15_1 0
y_15_2 1
y_15_3 0
y_15_4 1
y_15_5 0
y_16_0 0
y_16_1 1
y_16_2 0
y_16_3 0
y_16_4 1
y_16_5 0
y_17_0 0
y_17_1 1
y_17_2 0
y_17_3 0
y_17_4 1
y_17_5 0
y_18_0 0
y_18_1 1
y_18_2 1
y_18_3 0
y_18_4 1
y_18_5 0
y_19_0 0
y_19_1 1
y_19_2 1
y_19_3 0
y_19_4 1
y_19_5 0
y_20_0 0
y_20_1 1
y_20_2 1
y_20_3 0
y_20_4 1
y_20_5 0
x_0_1_0 0
x_0_1_1 1
x_0_1_2 0
x_0_1_3 0
x_0_1_4 1
x_0_1_5 0
x_0_2_0 0
x_0_2_1 0
x_0_2_2 0
x_0_2_3 0
x_0_2_4 0
x_0_2_5 0
x_0_3_0 0
x_0_3_1 0
x_0_3_2 0
x_0_3_3 0
x_0_3_4 0
x_0_3_5 0
x_0_4_0 0
x_0_4_1 0
x_0_4_2 0
x_0_4_3 0
x_0_4_4 0
x_0_4_5 0
x_0_5_0 0
x_0_5_1 0
x_0_5_2 0
x_0_5_3 0
x_0_5_4 0
x_0_5_5 0
x_0_6_0 0
x_0_6_1 0
x_0_6_2 0
x_0_6_3 0
x_0_6_4 0
x_0_6_5 0
x_0_7_0 0
x_0_7_1 0
x_0_7_2 0
x_0_7_3 0
x_0_7_4 0
x_0_7_5 0
x_0_8_0 0
x_0_8_1 0
x_0_8_2 0
x_0_8_3 0
x_0_8_4 0
x_0_8_5 0
x_0_9_0 0
x_0_9_1 0
x_0_9_2 0
x_0_9_3 0
x_0_9_4 0
x_0_9_5 0
x_0_10_0 0
x_0_10_1 0
x_0_10_2 0
x_0_10_3 0
x_0_10_4 0
x_0_10_5 0
x_0_11_0 0
x_0_11_1 0
x_0_11_2 0
x_0_11_3 0
x_0_11_4 0
x_0_11_5 0
x_0_12_0 0
x_0_12_1 0
x_0_12_2 0
x_0_12_3 0
x_0_12_4 0
x_0_12_5 0
x_0_13_0 0
x_0_13_1 1
x_0_13_2 1
x_0_13_3 0
x_0_13_4 1
x_0_13_5 0
x_0_14_0 0
x_0_14_1 0
x_0_14_2 1
x_0_14_3 0
x_0_14_4 0
x_0_14_5 0
x_0_15_0 0
x_0_15_1 0
x_0_15_2 0
x_0_15_3 0
x_0_15_4 0
x_0_15_5 0
x_0_16_0 0
x_0_16_1 0
x_0_16_2 0
x_0_16_3 0
x_0_16_4 0
x_0_16_5 0
x_0_17_0 0
x_0_17_1 0
x_0_17_2 0
x_0_17_3 0
x_0_17_4 0
x_0_17_5 0
x_0_18_0 0
x_0_18_1 0
x_0_18_2 0
x_0_18_3 0
x_0_18_4 0
x_0_18_5 0
x_0_19_0 0
x_0_19_1 0
x_0_19_2 0
x_0_19_3 0
x_0_19_4 0
x_0_19_5 0
x_0_20_0 0
x_0_20_1 0
x_0_20_2 0
x_0_20_3 0
x_0_20_4 0
x_0_20_5 0
x_1_2_0 0
x_1_2_1 0
x_1_2_2 0
x_1_2_3 0
x_1_2_4 0
x_1_2_5 0
x_1_3_0 0
x_1_3_1 0
x_1_3_2 0
x_1_3_3 0
x_1_3_4 0
x_1_3_5 0
x_1_4_0 0
x_1_4_1 0
x_1_4_2 0
x_1_4_3 0
x_1_4_4 0
x_1_4_5 0
x_1_5_0 0
x_1_5_1 0
x_1_5_2 0
x_1_5_3 0
x_1_5_4 0
x_1_5_5 0
x_1_6_0 0
x_1_6_1 0
x_1_6_2 0
x_1_6_3 0
x_1_6_4 0
x_1_6_5 0
x_1_7_0 0
x_1_7_1 0
x_1_7_2 0
x_1_7_3 0
x_1_7_4 0
x_1_7_5 0
x_1_8_0 0
x_1_8_1 0
x_1_8_2 0
x_1_8_3 0
x_1_8_4 0
x_1_8_5 0
x_1_9_0 0
x_1_9_1 0
x_1_9_2 0
x_1_9_3 0
x_1_9_4 0
x_1_9_5 0
x_1_10_0 0
x_1_10_1 0
x_1_10_2 0
x_1_10_3 0
x_1_10_4 0
x_1_10_5 0
x_1_11_0 0
x_1_11_1 0
x_1_11_2 0
x_1_11_3 0
x_1_11_4 0
x_1_11_5 0
x_1_12_0 0
x_1_12_1 0
x_1_12_2 0
x_1_12_3 0
x_1_12_4 0
x_1_12_5 0
x_1_13_0 0
x_1_13_1 0
x_1_13_2 0
x_1_13_3 0
x_1_13_4 0
x_1_13_5 0
x_1_14_0 0
x_1_14_1 0
x_1_14_2 0
x_1_14_3 0
x_1_14_4 1
x_1_14_5 0
x_1_15_0 0
x_1_15_1 0
x_1_15_2 0
x_1_15_3 0
x_1_15_4 0
x_1_15_5 0
x_1_16_0 0
x_1_16_1 0
x_1_16_2 0
x_1_16_3 0
x_1_16_4 0
x_1_16_5 0
x_1_17_0 0
x_1_17_1 0
x_1_17_2 0
x_1_17_3 0
x_1_17_4 0
x_1_17_5 0
x_1_18_0 0
x_1_18_1 0
x_1_18_2 0
x_1_18_3 0
x_1_18_4 0
x_1_18_5 0
x_1_19_0 0
x_1_19_1 0
x_1_19_2 0
x_1_19_3 0
x_1_19_4 0
x_1_19_5 0
x_1_20_0 0
x_1_20_1 1
x_1_20_2 0
x_1_20_3 0
x_1_20_4 0
x_1_20_5 0
x_2_3_0 0
x_2_3_1 0
x_2_3_2 0
x_2_3_3 0
x_2_3_4 0
x_2_3_5 0
x_2_4_0 0
x_2_4_1 0
x_2_4_2 0
x_2_4_3 0
x_2_4_4 0
x_2_4_5 0
x_2_5_0 0
x_2_5_1 0
x_2_5_2 0
x_2_5_3 0
x_2_5_4 0
x_2_5_5 0
x_2_6_0 0
x_2_6_1 0
x_2_6_2 0
x_2_6_3 0
x_2_6_4 0
x_2_6_5 0
x_2_7_0 0
x_2_7_1 0
x_2_7_2 0
x_2_7_3 0
x_2_7_4 0
x_2_7_5 0
x_2_8_0 0
x_2_8_1 0
x_2_8_2 0
x_2_8_3 0
x_2_8_4 0
x_2_8_5 0
x_2_9_0 0
x_2_9_1 0
x_2_9_2 0
x_2_9_3 0
x_2_9_4 0
x_2_9_5 0
x_2_10_0 0
x_2_10_1 0
x_2_10_2 0
x_2_10_3 0
x_2_10_4 0
x_2_10_5 0
x_2_11_0 0
x_2_11_1 0
x_2_11_2 0
x_2_11_3 0
x_2_11_4 0
x_2_11_5 0
x_2_12_0 0
x_2_12_1 0
x_2_12_2 1
x_2_12_3 0
x_2_12_4 1
x_2_12_5 0
x_2_13_0 0
x_2_13_1 0
x_2_13_2 0
x_2_13_3 0
x_2_13_4 0
x_2_13_5 0
x_2_14_0 0
x_2_14_1 0
x_2_14_2 0
x_2_14_3 0
x_2_14_4 0
x_2_14_5 0
x_2_15_0 0
x_2_15_1 0
x_2_15_2 0
x_2_15_3 0
x_2_15_4 0
x_2_15_5 0
x_2_16_0 0
x_2_16_1 0
x_2_16_2 0
x_2_16_3 0
x_2_16_4 0
x_2_16_5 0
x_2_17_0 0
x_2_17_1 0
x_2_17_2 0
x_2_17_3 0
x_2_17_4 0
x_2_17_5 0
x_2_18_0 0
x_2_18_1 0
x_2_18_2 0
x_2_18_3 0
x_2_18_4 0
x_2_18_5 0
x_2_19_0 0
x_2_19_1 0
x_2_19_2 0
x_2_19_3 0
x_2_19_4 0
x_2_19_5 0
x_2_20_0 0
x_2_20_1 0
x_2_20_2 1
x_2_20_3 0
x_2_20_4 1
x_2_20_5 0
x_3_4_0 0
x_3_4_1 0
x_3_4_2 0
x_3_4_3 0
x_3_4_4 0
x_3_4_5 0
x_3_5_0 0
x_3_5_1 0
x_3_5_2 0
x_3_5_3 0
x_3_5_4 0
x_3_5_5 0
x_3_6_0 0
x_3_6_1 0
x_3_6_2 0
x_3_6_3 0
x_3_6_4 0
x_3_6_5 0
x_3_7_0 0
x_3_7_1 0
x_3_7_2 0
x_3_7_3 0
x_3_7_4 0
x_3_7_5 0
x_3_8_0 0
x_3_8_1 0
x_3_8_2 0
x_3_8_3 0
x_3_8_4 0
x_3_8_5 0
x_3_9_0 0
x_3_9_1 0
x_3_9_2 0
x_3_9_3 0
x_3_9_4 0
x_3_9_5 0
x_3_10_0 0
x_3_10_1 0
x_3_10_2 0
x_3_10_3 0
x_3_10_4 0
x_3_10_5 0
x_3_11_0 0
x_3_11_1 0
x_3_11_2 1
x_3_11_3 0
x_3_11_4 1
x_3_11_5 0
x_3_12_0 0
x_3_12_1 1
x_3_12_2 0
x_3_12_3 0
x_3_12_4 0
x_3_12_5 0
x_3_13_0 0
x_3_13_1 0
x_3_13_2 0
x_3_13_3 0
x_3_13_4 0
x_3_13_5 0
x_3_14_0 0
x_3_14_1 0
x_3_14_2 0
x_3_14_3 0
x_3_14_4 0
x_3_14_5 0
x_3_15_0 0
x_3_15_1 0
x_3_15_2 0
x_3_15_3 0
x_3_15_4 0
x_3_15_5 0
x_3_16_0 0
x_3_16_1 0
x_3_16_2 0
x_3_16_3 0
x_3_16_4 0
x_3_16_5 0
x_3_17_0 0
x_3_17_1 0
x_3_17_2 0
x_3_17_3 0
x_3_17_4 0
x_3_17_5 0
x_3_18_0 0
x_3_18_1 1
x_3_18_2 1
x_3_18_3 0
x_3_18_4 1
x_3_18_5 0
x_3_19_0 0
x_3_19_1 0
x_3_19_2 0
x_3_19_3 0
x_3_19_4 0
x_3_19_5 0
x_3_20_0 0
x_3_20_1 0
x_3_20_2 0
x_3_20_3 0
x_3_20_4 0
x_3_20_5 0
x_4_5_0 0
x_4_5_1 0
x_4_5_2 0
x_4_5_3 0
x_4_5_4 0
x_4_5_5 0
x_4_6_0 0
x_4_6_1 0
x_4_6_2 0
x_4_6_3 0
x_4_6_4 0
x_4_6_5 0
x_4_7_0 0
x_4_7_1 0
x_4_7_2 0
x_4_7_3 0
x_4_7_4 0
x_4_7_5 0
x_4_8_0 0
x_4_8_1 0
x_4_8_2 1
x_4_8_3 0
x_4_8_4 1
x_4_8_5 0
x_4_9_0 0
x_4_9_1 0
x_4_9_2 0
x_4_9_3 0
x_4_9_4 0
x_4_9_5 0
x_4_10_0 0
x_4_10_1 0
x_4_10_2 0
x_4_10_3 0
x_4_10_4 0
x_4_10_5 0
x_4_11_0 0
x_4_11_1 0
x_4_11_2 0
x_4_11_3 0
x_4_11_4 0
x_4_11_5 0
x_4_12_0 0
x_4_12_1 0
x_4_12_2 0
x_4_12_3 0
x_4_12_4 0
x_4_12_5 0
x_4_13_0 0
x_4_13_1 0
x_4_13_2 0
x_4_13_3 0
x_4_13_4 0
x_4_13_5 0
x_4_14_0 0
x_4_14_1 0
x_4_14_2 0
x_4_14_3 0
x_4_14_4 0
x_4_14_5 0
x_4_15_0 0
x_4_15_1 0
x_4_15_2 1
x_4_15_3 0
x_4_15_4 1
x_4_15_5 0
x_4_16_0 0
x_4_16_1 0
x_4_16_2 0
x_4_16_3 0
x_4_16_4 0
x_4_16_5 0
x_4_17_0 0
x_4_17_1 0
x_4_17_2 0
x_4_17_3 0
x_4_17_4 0
x_4_17_5 0
x_4_18_0 0
x_4_18_1 0
x_4_18_2 0
x_4_18_3 0
x_4_18_4 0
x_4_18_5 0
x_4_19_0 0
x_4_19_1 0
x_4_19_2 0
x_4_19_3 0
x_4_19_4 0
x_4_19_5 0
x_4_20_0 0
x_4_20_1 0
x_4_20_2 0
x_4_20_3 0
x_4_20_4 0
x_4_20_5 0
x_5_6_0 0
x_5_6_1 0
x_5_6_2 0
x_5_6_3 0
x_5_6_4 0
x_5_6_5 0
x_5_7_0 0
x_5_7_1 0
x_5_7_2 0
x_5_7_3 0
x_5_7_4 0
x_5_7_5 0
x_5_8_0 0
x_5_8_1 0
x_5_8_2 0
x_5_8_3 0
x_5_8_4 0
x_5_8_5 0
x_5_9_0 0
x_5_9_1 0
x_5_9_2 1
x_5_9_3 0
x_5_9_4 1
x_5_9_5 0
x_5_10_0 0
x_5_10_1 0
x_5_10_2 0
x_5_10_3 0
x_5_10_4 0
x_5_10_5 0
x_5_11_0 0
x_5_11_1 0
x_5_11_2 0
x_5_11_3 0
x_5_11_4 0
x_5_11_5 0
x_5_12_0 0
x_5_12_1 0
x_5_12_2 0
x_5_12_3 0
x_5_12_4 0
x_5_12_5 0
x_5_13_0 0
x_5_13_1 0
x_5_13_2 0
x_5_13_3 0
x_5_13_4 0
x_5_13_5 0
x_5_14_0 0
x_5_14_1 0
x_5_14_2 1
x_5_14_3 0
x_5_14_4 1
x_5_14_5 0
x_5_15_0 0
x_5_15_1 0
x_5_15_2 0
x_5_15_3 0
x_5_15_4 0
x_5_15_5 0
x_5_16_0 0
x_5_16_1 0
x_5_16_2 0
x_5_16_3 0
x_5_16_4 0
x_5_16_5 0
x_5_17_0 0
x_5_17_1 0
x_5_17_2 0
x_5_17_3 0
x_5_17_4 0
x_5_17_5 0
x_5_18_0 0
x_5_18_1 0
x_5_18_2 0
x_5_18_3 0
x_5_18_4 0
x_5_18_5 0
x_5_19_0 0
x_5_19_1 0
x_5_19_2 0
x_5_19_3 0
x_5_19_4 0
x_5_19_5 0
x_5_20_0 0
x_5_20_1 0
x_5_20_2 0
x_5_20_3 0
x_5_20_4 0
x_5_20_5 0
x_6_7_0 0
x_6_7_1 1
x_6_7_2 1
x_6_7_3 0
x_6_7_4 1
x_6_7_5 0
x_6_8_0 0
x_6_8_1 0
x_6_8_2 0
x_6_8_3 0
x_6_8_4 0
x_6_8_5 0
x_6_9_0 0
x_6_9_1 0
x_6_9_2 1
x_6_9_3 0
x_6_9_4 0
x_6_9_5 0
x_6_10_0 0
x_6_10_1 1
x_6_10_2 0
x_6_10_3 0
x_6_10_4 1
x_6_10_5 0
x_6_11_0 0
x_6_11_1 0
x_6_11_2 0
x_6_11_3 0
x_6_11_4 0
x_6_11_5 0
x_6_12_0 0
x_6_12_1 0
x_6_12_2 0
x_6_12_3 0
x_6_12_4 0
x_6_12_5 0
x_6_13_0 0
x_6_13_1 0
x_6_13_2 0
x_6_13_3 0
x_6_13_4 0
x_6_13_5 0
x_6_14_0 0
x_6_14_1 0
x_6_14_2 0
x_6_14_3 0
x_6_14_4 0
x_6_14_5 0
x_6_15_0 0
x_6_15_1 0
x_6_15_2 0
x_6_15_3 0
x_6_15_4 0
x_6_15_5 0
x_6_16_0 0
x_6_16_1 0
x_6_16_2 0
x_6_16_3 0
x_6_16_4 0
x_6_16_5 0
x_6_17_0 0
x_6_17_1 0
x_6_17_2 0
x_6_17_3 0
x_6_17_4 0
x_6_17_5 0
x_6_18_0 0
x_6_18_1 0
x_6_18_2 0
x_6_18_3 0
x_6_18_4 0
x_6_18_5 0
x_6_19_0 0
x_6_19_1 0
x_6_19_2 0
x_6_19_3 0
x_6_19_4 0
x_6_19_5 0
x_6_20_0 0
x_6_20_1 0
x_6_20_2 0
x_6_20_3 0
x_6_20_4 0
x_6_20_5 0
x_7_8_0 0
x_7_8_1 0
x_7_8_2 0
x_7_8_3 0
x_7_8_4 0
x_7_8_5 0
x_7_9_0 0
x_7_9_1 0
x_7_9_2 0
x_7_9_3 0
x_7_9_4 0
x_7_9_5 0
x_7_10_0 0
x_7_10_1 0
x_7_10_2 1
x_7_10_3 0
x_7_10_4 0
x_7_10_5 0
x_7_11_0 0
x_7_11_1 0
x_7_11_2 0
x_7_11_3 0
x_7_11_4 0
x_7_11_5 0
x_7_12_0 0
x_7_12_1 0
x_7_12_2 0
x_7_12_3 0
x_7_12_4 0
x_7_12_5 0
x_7_13_0 0
x_7_13_1 0
x_7_13_2 0
x_7_13_3 0
x_7_13_4 0
x_7_13_5 0
x_7_14_0 0
x_7_14_1 0
x_7_14_2 0
x_7_14_3 0
x_7_14_4 0
x_7_14_5 0
x_7_15_0 0
x_7_15_1 0
x_7_15_2 0
x_7_15_3 0
x_7_15_4 0
x_7_15_5 0
x_7_16_0 0
x_7_16_1 1
x_7_16_2 0
x_7_16_3 0
x_7_16_4 1
x_7_16_5 0
x_7_17_0 0
x_7_17_1 0
x_7_17_2 0
x_7_17_3 0
x_7_17_4 0
x_7_17_5 0
x_7_18_0 0
x_7_18_1 0
x_7_18_2 0
x_7_18_3 0
x_7_18_4 0
x_7_18_5 0
x_7_19_0 0
x_7_19_1 0
x_7_19_2 0
x_7_19_3 0
x_7_19_4 0
x_7_19_5 0
x_7_20_0 0
x_7_20_1 0
x_7_20_2 0
x_7_20_3 0
x_7_20_4 0
x_7_20_5 0
x_8_9_0 0
x_8_9_1 0
x_8_9_2 0
x_8_9_3 0
x_8_9_4 0
x_8_9_5 0
x_8_10_0 0
x_8_10_1 0
x_8_10_2 0
x_8_10_3 0
x_8_10_4 0
x_8_10_5 0
x_8_11_0 0
x_8_11_1 0
x_8_11_2 0
x_8_11_3 0
x_8_11_4 0
x_8_11_5 0
x_8_12_0 0
x_8_12_1 0
x_8_12_2 0
x_8_12_3 0
x_8_12_4 0
x_8_12_5 0
x_8_13_0 0
x_8_13_1 1
x_8_13_2 1
x_8_13_3 0
x_8_13_4 1
x_8_13_5 0
x_8_14_0 0
x_8_14_1 0
x_8_14_2 0
x_8_14_3 0
x_8_14_4 0
x_8_14_5 0
x_8_15_0 0
x_8_15_1 0
x_8_15_2 0
x_8_15_3 0
x_8_15_4 0
x_8_15_5 0
x_8_16_0 0
x_8_16_1 0
x_8_16_2 0
x_8_16_3 0
x_8_16_4 0
x_8_16_5 0
x_8_17_0 0
x_8_17_1 1
x_8_17_2 0
x_8_17_3 0
x_8_17_4 0
x_8_17_5 0
x_8_18_0 0
x_8_18_1 0
x_8_18_2 0
x_8_18_3 0
x_8_18_4 0
x_8_18_5 0
x_8_19_0 0
x_8_19_1 0
x_8_19_2 0
x_8_19_3 0
x_8_19_4 0
x_8_19_5 0
x_8_20_0 0
x_8_20_1 0
x_8_20_2 0
x_8_20_3 0
x_8_20_4 0
x_8_20_5 0
x_9_10_0 0
x_9_10_1 0
x_9_10_2 0
x_9_10_3 0
x_9_10_4 0
x_9_10_5 0
x_9_11_0 0
x_9_11_1 0
x_9_11_2 0
x_9_11_3 0
x_9_11_4 0
x_9_11_5 0
x_9_12_0 0
x_9_12_1 0
x_9_12_2 0
x_9_12_3 0
x_9_12_4 0
x_9_12_5 0
x_9_13_0 0
x_9_13_1 0
x_9_13_2 0
x_9_13_3 0
x_9_13_4 0
x_9_13_5 0
x_9_14_0 0
x_9_14_1 0
x_9_14_2 0
x_9_14_3 0
x_9_14_4 0
x_9_14_5 0
x_9_15_0 0
x_9_15_1 0
x_9_15_2 0
x_9_15_3 0
x_9_15_4 0
x_9_15_5 0
x_9_16_0 0
x_9_16_1 1
x_9_16_2 0
x_9_16_3 0
x_9_16_4 1
x_9_16_5 0
x_9_17_0 0
x_9_17_1 0
x_9_17_2 0
x_9_17_3 0
x_9_17_4 0
x_9_17_5 0
x_9_18_0 0
x_9_18_1 0
x_9_18_2 0
x_9_18_3 0
x_9_18_4 0
x_9_18_5 0
x_9_19_0 0
x_9_19_1 0
x_9_19_2 0
x_9_19_3 0
x_9_19_4 0
x_9_19_5 0
x_9_20_0 0
x_9_20_1 1
x_9_20_2 0
x_9_20_3 0
x_9_20_4 0
x_9_20_5 0
x_10_11_0 0
x_10_11_1 0
x_10_11_2 0
x_10_11_3 0
x_10_11_4 0
x_10_11_5 0
x_10_12_0 0
x_10_12_1 0
x_10_12_2 0
x_10_12_3 0
x_10_12_4 0
x_10_12_5 0
x_10_13_0 0
x_10_13_1 0
x_10_13_2 0
x_10_13_3 0
x_10_13_4 0
x_10_13_5 0
x_10_14_0 0
x_10_14_1 0
x_10_14_2 0
x_10_14_3 0
x_10_14_4 0
x_10_14_5 0
x_10_15_0 0
x_10_15_1 0
x_10_15_2 0
x_10_15_3 0
x_10_15_4 0
x_10_15_5 0
x_10_16_0 0
x_10_16_1 0
x_10_16_2 0
x_10_16_3 0
x_10_16_4 0
x_10_16_5 0
x_10_17_0 0
x_10_17_1 0
x_10_17_2 0
x_10_17_3 0
x_10_17_4 0
x_10_17_5 0
x_10_18_0 0
x_10_18_1 0
x_10_18_2 0
x_10_18_3 0
x_10_18_4 0
x_10_18_5 0
x_10_19_0 0
x_10_19_1 1
x_10_19_2 1
x_10_19_3 0
x_10_19_4 1
x_10_19_5 0
x_10_20_0 0
x_10_20_1 0
x_10_20_2 0
x_10_20_3 0
x_10_20_4 0
x_10_20_5 0
x_11_12_0 0
x_11_12_1 0
x_11_12_2 0
x_11_12_3 0
x_11_12_4 0
x_11_12_5 0
x_11_13_0 0
x_11_13_1 0
x_11_13_2 0
x_11_13_3 0
x_11_13_4 0
x_11_13_5 0
x_11_14_0 0
x_11_14_1 0
x_11_14_2 0
x_11_14_3 0
x_11_14_4 0
x_11_14_5 0
x_11_15_0 0
x_11_15_1 0
x_11_15_2 0
x_11_15_3 0
x_11_15_4 0
x_11_15_5 0
x_11_16_0 0
x_11_16_1 0
x_11_16_2 0
x_11_16_3 0
x_11_16_4 0
x_11_16_5 0
x_11_17_0 0
x_11_17_1 0
x_11_17_2 0
x_11_17_3 0
x_11_17_4 0
x_11_17_5 0
x_11_18_0 0
x_11_18_1 0
x_11_18_2 0
x_11_18_3 0
x_11_18_4 0
x_11_18_5 0
x_11_19_0 0
x_11_19_1 0
x_11_19_2 0
x_11_19_3 0
x_11_19_4 0
x_11_19_5 0
x_11_20_0 0
x_11_20_1 0
x_11_20_2 1
x_11_20_3 0
x_11_20_4 1
x_11_20_5 0
x_12_13_0 0
x_12_13_1 0
x_12_13_2 0
x_12_13_3 0
x_12_13_4 0
x_12_13_5 0
x_12_14_0 0
x_12_14_1 0
x_12_14_2 0
x_12_14_3 0
x_12_14_4 0
x_12_14_5 0
x_12_15_0 0
x_12_15_1 0
x_12_15_2 1
x_12_15_3 0
x_12_15_4 0
x_12_15_5 0
x_12_16_0 0
x_12_16_1 0
x_12_16_2 0
x_12_16_3 0
x_12_16_4 0
x_12_16_5 0
x_12_17_0 0
x_12_17_1 1
x_12_17_2 0
x_12_17_3 0
x_12_17_4 1
x_12_17_5 0
x_12_18_0 0
x_12_18_1 0
x_12_18_2 0
x_12_18_3 0
x_12_18_4 0
x_12_18_5 0
x_12_19_0 0
x_12_19_1 0
x_12_19_2 0
x_12_19_3 0
x_12_19_4 0
x_12_19_5 0
x_12_20_0 0
x_12_20_1 0
x_12_20_2 0
x_12_20_3 0
x_12_20_4 0
x_12_20_5 0
x_13_14_0 0
x_13_14_1 0
x_13_14_2 0
x_13_14_3 0
x_13_14_4 0
x_13_14_5 0
x_13_15_0 0
x_13_15_1 0
x_13_15_2 0
x_13_15_3 0
x_13_15_4 0
x_13_15_5 0
x_13_16_0 0
x_13_16_1 0
x_13_16_2 0
x_13_16_3 0
x_13_16_4 0
x_13_16_5 0
x_13_17_0 0
x_13_17_1 0
x_13_17_2 0
x_13_17_3 0
x_13_17_4 0
x_13_17_5 0
x_13_18_0 0
x_13_18_1 0
x_13_18_2 0
x_13_18_3 0
x_13_18_4 0
x_13_18_5 0
x_13_19_0 0
x_13_19_1 0
x_13_19_2 0
x_13_19_3 0
x_13_19_4 0
x_13_19_5 0
x_13_20_0 0
x_13_20_1 0
x_13_20_2 0
x_13_20_3 0
x_13_20_4 0
x_13_20_5 0
x_14_15_0 0
x_14_15_1 0
x_14_15_2 0
x_14_15_3 0
x_14_15_4 0
x_14_15_5 0
x_14_16_0 0
x_14_16_1 0
x_14_16_2 0
x_14_16_3 0
x_14_16_4 0
x_14_16_5 0
x_14_17_0 0
x_14_17_1 0
x_14_17_2 0
x_14_17_3 0
x_14_17_4 0
x_14_17_5 0
x_14_18_0 0
x_14_18_1 0
x_14_18_2 0
x_14_18_3 0
x_14_18_4 0
x_14_18_5 0
x_14_19_0 0
x_14_19_1 0
x_14_19_2 0
x_14_19_3 0
x_14_19_4 0
x_14_19_5 0
x_14_20_0 0
x_14_20_1 0
x_14_20_2 0
x_14_20_3 0
x_14_20_4 0
x_14_20_5 0
x_15_16_0 0
x_15_16_1 0
x_15_16_2 0
x_15_16_3 0
x_15_16_4 0
x_15_16_5 0
x_15_17_0 0
x_15_17_1 0
x_15_17_2 0
x_15_17_3 0
x_15_17_4 1
x_15_17_5 0
x_15_18_0 0
x_15_18_1 0
x_15_18_2 0
x_15_18_3 0
x_15_18_4 0
x_15_18_5 0
x_15_19_0 0
x_15_19_1 0
x_15_19_2 0
x_15_19_3 0
x_15_19_4 0
x_15_19_5 0
x_15_20_0 0
x_15_20_1 0
x_15_20_2 0
x_15_20_3 0
x_15_20_4 0
x_15_20_5 0
x_16_17_0 0
x_16_17_1 0
x_16_17_2 0
x_16_17_3 0
x_16_17_4 0
x_16_17_5 0
x_16_18_0 0
x_16_18_1 0
x_16_18_2 0
x_16_18_3 0
x_16_18_4 0
x_16_18_5 0
x_16_19_0 0
x_16_19_1 0
x_16_19_2 0
x_16_19_3 0
x_16_19_4 0
x_16_19_5 0
x_16_20_0 0
x_16_20_1 0
x_16_20_2 0
x_16_20_3 0
x_16_20_4 0
x_16_20_5 0
x_17_18_0 0
x_17_18_1 0
x_17_18_2 0
x_17_18_3 0
x_17_18_4 0
x_17_18_5 0
x_17_19_0 0
x_17_19_1 0
x_17_19_2 0
x_17_19_3 0
x_17_19_4 0
x_17_19_5 0
x_17_20_0 0
x_17_20_1 0
x_17_20_2 0
x_17_20_3 0
x_17_20_4 0
x_17_20_5 0
x_18_19_0 0
x_18_19_1 1
x_18_19_2 1
x_18_19_3 0
x_18_19_4 1
x_18_19_5 0
x_18_20_0 0
x_18_20_1 0
x_18_20_2 0
x_18_20_3 0
x_18_20_4 0
x_18_20_5 0
x_19_20_0 0
x_19_20_1 0
x_19_20_2 0
x_19_20_3 0
x_19_20_4 0
x_19_20_5 0
